30
1 0 7
2 0 2
2 1 5
3 0 16
3 1 17
3 2 4
4 0 18
4 1 19
4 2 3
4 3 9
5 0 3
5 1 12
5 2 19
5 3 1
5 4 2
6 0 12
6 1 9
6 2 6
6 3 11
6 4 2
6 5 3
7 0 2
7 1 12
7 2 17
7 3 8
7 4 20
7 5 14
7 6 5
8 0 5
8 1 16
8 2 14
8 3 8
8 4 4
8 5 3
8 6 20
8 7 15
9 0 2
9 1 7
9 2 9
9 3 1
9 4 15
9 5 12
9 6 10
9 7 6
9 8 12
10 0 17
10 1 5
10 2 9
10 3 7
10 4 9
10 5 10
10 6 13
10 7 18
10 8 6
10 9 15
11 0 11
11 1 8
11 2 13
11 3 20
11 4 10
11 5 20
11 6 20
11 7 19
11 8 10
11 9 18
11 10 17
12 0 9
12 1 9
12 2 3
12 3 5
12 4 14
12 5 2
12 6 3
12 7 18
12 8 8
12 9 13
12 10 20
12 11 5
13 0 15
13 1 10
13 2 3
13 3 14
13 4 10
13 5 11
13 6 8
13 7 8
13 8 14
13 9 11
13 10 3
13 11 4
13 12 6
14 0 9
14 1 17
14 2 10
14 3 16
14 4 16
14 5 1
14 6 13
14 7 8
14 8 18
14 9 16
14 10 20
14 11 10
14 12 11
14 13 17
15 0 5
15 1 4
15 2 17
15 3 11
15 4 4
15 5 16
15 6 12
15 7 19
15 8 16
15 9 12
15 10 7
15 11 20
15 12 13
15 13 18
15 14 18
16 0 7
16 1 3
16 2 12
16 3 2
16 4 15
16 5 5
16 6 14
16 7 10
16 8 5
16 9 20
16 10 5
16 11 18
16 12 8
16 13 18
16 14 8
16 15 10
17 0 15
17 1 6
17 2 13
17 3 7
17 4 4
17 5 8
17 6 14
17 7 8
17 8 13
17 9 7
17 10 13
17 11 16
17 12 9
17 13 5
17 14 14
17 15 2
17 16 20
18 0 15
18 1 6
18 2 17
18 3 18
18 4 14
18 5 5
18 6 15
18 7 11
18 8 2
18 9 11
18 10 1
18 11 8
18 12 5
18 13 7
18 14 19
18 15 13
18 16 8
18 17 1
19 0 10
19 1 12
19 2 3
19 3 18
19 4 18
19 5 8
19 6 11
19 7 20
19 8 1
19 9 4
19 10 15
19 11 1
19 12 17
19 13 9
19 14 18
19 15 15
19 16 13
19 17 20
19 18 17
20 0 12
20 1 13
20 2 19
20 3 12
20 4 6
20 5 13
20 6 12
20 7 10
20 8 17
20 9 9
20 10 9
20 11 10
20 12 17
20 13 10
20 14 16
20 15 3
20 16 17
20 17 8
20 18 18
20 19 3
21 0 9
21 1 5
21 2 15
21 3 7
21 4 16
21 5 16
21 6 1
21 7 4
21 8 12
21 9 17
21 10 14
21 11 3
21 12 18
21 13 2
21 14 13
21 15 18
21 16 8
21 17 9
21 18 13
21 19 18
21 20 11
22 0 3
22 1 15
22 2 3
22 3 20
22 4 8
22 5 11
22 6 10
22 7 1
22 8 13
22 9 14
22 10 9
22 11 20
22 12 11
22 13 4
22 14 6
22 15 18
22 16 16
22 17 10
22 18 10
22 19 4
22 20 19
22 21 2
23 0 7
23 1 11
23 2 14
23 3 11
23 4 13
23 5 19
23 6 15
23 7 8
23 8 10
23 9 11
23 10 12
23 11 3
23 12 4
23 13 6
23 14 20
23 15 11
23 16 12
23 17 10
23 18 10
23 19 18
23 20 3
23 21 3
23 22 2
24 0 12
24 1 11
24 2 2
24 3 9
24 4 3
24 5 4
24 6 19
24 7 12
24 8 19
24 9 10
24 10 18
24 11 17
24 12 14
24 13 2
24 14 20
24 15 5
24 16 8
24 17 4
24 18 15
24 19 17
24 20 14
24 21 19
24 22 17
24 23 11
25 0 2
25 1 2
25 2 6
25 3 17
25 4 5
25 5 6
25 6 6
25 7 17
25 8 6
25 9 14
25 10 5
25 11 5
25 12 12
25 13 19
25 14 16
25 15 11
25 16 8
25 17 14
25 18 7
25 19 6
25 20 11
25 21 10
25 22 8
25 23 18
25 24 2
26 0 6
26 1 8
26 2 2
26 3 5
26 4 17
26 5 12
26 6 20
26 7 7
26 8 13
26 9 18
26 10 14
26 11 15
26 12 1
26 13 4
26 14 10
26 15 6
26 16 20
26 17 12
26 18 10
26 19 18
26 20 10
26 21 13
26 22 11
26 23 19
26 24 4
26 25 20
27 0 8
27 1 8
27 2 9
27 3 15
27 4 16
27 5 12
27 6 17
27 7 10
27 8 16
27 9 19
27 10 11
27 11 8
27 12 11
27 13 14
27 14 19
27 15 10
27 16 19
27 17 1
27 18 15
27 19 4
27 20 8
27 21 19
27 22 3
27 23 7
27 24 19
27 25 1
27 26 17
28 0 11
28 1 2
28 2 6
28 3 3
28 4 16
28 5 16
28 6 1
28 7 12
28 8 10
28 9 6
28 10 14
28 11 4
28 12 1
28 13 9
28 14 12
28 15 14
28 16 15
28 17 16
28 18 8
28 19 13
28 20 13
28 21 4
28 22 14
28 23 16
28 24 19
28 25 7
28 26 20
28 27 3
29 0 20
29 1 1
29 2 9
29 3 17
29 4 10
29 5 12
29 6 10
29 7 12
29 8 6
29 9 7
29 10 16
29 11 9
29 12 8
29 13 11
29 14 10
29 15 2
29 16 12
29 17 11
29 18 1
29 19 19
29 20 3
29 21 14
29 22 12
29 23 2
29 24 5
29 25 18
29 26 16
29 27 10
29 28 9
